c WARNING: for repeatability, setting FPU to use double precision
d VARIABLES            226848       
d CONSTRAINTS          839608       
c ============================[ Problem Statistics ]=============================
c |                                                                             |
c |  Number of variables:        226848                                         |
c |  Number of clauses:          839608                                         |
c |  Parse time:                   0.15 s                                       |
c |                                                                             |
c ============================[ Search Statistics ]==============================
c | Conflicts |          ORIGINAL         |          LEARNT          | Progress |
c |           |    Vars  Clauses Literals |    Limit  Clauses Lit/Cl |          |
c ===============================================================================
c |       100 |  186587   735186  1843877 |   269568      100     70 | 17.748 % |
c |       250 |  186587   735186  1843877 |   296525      250     40 | 17.748 % |
c |       475 |  186587   735186  1843877 |   326177      475     23 | 17.748 % |
c |       812 |  186587   735186  1843877 |   358795      812     16 | 17.748 % |
c |      1318 |  186587   735186  1843877 |   394674     1318     23 | 17.748 % |
c |      2077 |  186587   735186  1843877 |   434142     2077     25 | 17.748 % |
c |      3216 |  186587   735186  1843877 |   477556     3216     56 | 17.748 % |
c |      4924 |  186587   735186  1843877 |   525312     4924     50 | 17.748 % |
c |      7486 |  186587   735186  1843877 |   577843     7486     95 | 17.748 % |
c |     11330 |  186587   735186  1843877 |   635627    11330    111 | 17.748 % |
c |     17096 |  186587   735186  1843877 |   699190    17096    111 | 17.748 % |
c |     25745 |  186587   735186  1843877 |   769109    25745    104 | 17.748 % |
c |     38719 |  186587   735186  1843877 |   846020    38719    108 | 17.748 % |
c |     58180 |  186587   735186  1843877 |   930622    58180    138 | 17.748 % |
c |     87372 |  186587   735186  1843877 |  1023684    87372    133 | 17.748 % |
c |    131161 |  186587   735186  1843877 |  1126053   131161    149 | 17.748 % |
c |    196845 |  186587   735186  1843877 |  1238658   196845    176 | 17.748 % |
c |    295371 |  186587   735186  1843877 |  1362524   295371    172 | 17.748 % |
c |    443160 |  186587   735186  1843877 |  1498776   443160    169 | 17.748 % |
c |    664843 |  186587   735186  1843877 |  1648654   664843    168 | 17.748 % |
c |    997368 |  186587   735186  1843877 |  1813520   997368    167 | 17.748 % |
c |   1496156 |  186587   735186  1843877 |  1994872  1496156    164 | 17.748 % |
c |   2244338 |  186587   735186  1843877 |  2194359   252014    203 | 17.748 % |
c ===============================================================================
c restarts              : 5118
c conflicts             : 2969035        (1657 /sec)
c decisions             : 7337483        (0.00 % random) (4095 /sec)
c propagations          : 3786831146     (2113314 /sec)
c conflict literals     : 486339447      (40.62 % deleted)
d RESTARTS             5118
d FAILURES             2969035      
d NODES                7337483      
d BACKTRACKS           7337483      
d PROPAGATIONS         3786831146   
d NOGOODSIZE           163.80 
d MEMORY               1672.00 
d TIME                 1791.89 

s UNKNOWN
